SPARKNaCl/why3-z3/sparknacl-hashing-rfsb509.adb_132_15_range_check8_1.smt2
;; produced by z3_gnatprove.drv ;;
(set-info :smt-lib-version 2.5)
(set-info :source |VC generated by SPARK 2014|)
(set-info :category industrial)
(set-info :status unknown)
;;; generated by SMT-LIB2 driver
;;; SMT-LIB2 driver: bit-vectors, common part
;;; SMT-LIB2: integer arithmetic
(declare-datatypes ()
  ((int__ref (int__refqtmk (int__content Int)))))

(declare-datatypes ()
  ((t__ref (t__refqtmk (t__content (_ BitVec 8))))))

;; "in_range"
(define-fun in_range ((x Int)) Bool
  (and (<= (- 2147483648) x) (<= x 2147483647)))

(declare-sort byte 0)

;; "to_rep"
(declare-fun to_rep (byte) (_ BitVec 8))

;; "of_rep"
(declare-fun of_rep ((_ BitVec 8)) byte)

;; "inversion_axiom"
(assert
  (forall ((x byte)) (! (= (of_rep (to_rep x)) x) :pattern ((to_rep x)) )))

;; "range_axiom"
(assert true)

;; "coerce_axiom"
(assert
  (forall ((x (_ BitVec 8)))
    (! (= (to_rep (of_rep x)) x) :pattern ((to_rep (of_rep x))) )))

(declare-sort map1 0)

(declare-datatypes ()
  ((map__ref (map__refqtmk (map__content map1)))))

;; "has_bounds"
(declare-fun has_bounds (map1
  Int
  Int) Bool)

;; "get"
(declare-fun get (map1
  Int) byte)

(declare-const three_msb_mask (_ BitVec 8))

(declare-const exponent Int)

(declare-const shift_amount Int)

(declare-datatypes ()
  ((byte__init_wrapper
   (byte__init_wrapperqtmk (rec__value byte)(us_attr__init Bool)))))

(declare-sort map2 0)

(declare-datatypes ()
  ((map__ref1 (map__refqtmk1 (map__content1 map2)))))

;; "has_bounds"
(declare-fun has_bounds1 (map2
  Int
  Int) Bool)

;; "get"
(declare-fun get1 (map2
  Int) byte__init_wrapper)

;; "set"
(declare-fun set (map2
  Int
  byte__init_wrapper) map2)

;; "set_eq"
(assert
  (forall ((a map2) (i Int) (v byte__init_wrapper))
    (! (= (get1 (set a i v) i) v) :pattern ((set a i v)) )))

;; "set_neq"
(assert
  (forall ((a map2) (i Int) (v byte__init_wrapper))
    (! (forall ((j Int))
         (! (=> (not (= i j)) (= (get1 (set a i v) j) (get1 a j))) :pattern (
         (get1
           a
           j)) :pattern ((get1 (set a i v) j)) )) :pattern ((set a i v)) )))

;; "set_has_bounds"
(assert
  (forall ((a map2) (i Int) (f Int) (l Int) (v byte__init_wrapper))
    (! (=>
         (and (<= f i) (<= i l))
         (=> (has_bounds1 a f l) (has_bounds1 (set a i v) f l))) :pattern (
    (has_bounds1
      (set a i v)
      f
      l)) )))

;; "slice"
(declare-fun slice (map2
  Int
  Int) map2)

;; "slice_eq"
(assert
  (forall ((a map2) (f Int) (l Int))
    (! (=> (has_bounds1 a f l) (= (slice a f l) a)) :pattern ((slice a f l)
    (has_bounds1 a f l)) )))

;; "slice_slice"
(assert
  (forall ((a map2) (f1 Int) (l1 Int) (f2 Int) (l2 Int))
    (! (=>
         (and (<= f1 f2) (<= l2 l1))
         (= (slice (slice a f1 l1) f2 l2) (slice a f2 l2))) :pattern (
    (slice
      (slice a f1 l1)
      f2
      l2)) )))

;; "slice_def"
(assert
  (forall ((a map2) (f Int) (l Int))
    (! (forall ((i Int))
         (! (=>
              (and (<= f i) (<= i l))
              (= (get1 (slice a f l) i) (get1 a i))) :pattern ((get1
                                                                 (slice
                                                                   a
                                                                   f
                                                                   l)
                                                                 i)) :pattern (
         (get1
           a
           i)) )) :pattern ((slice a f l)) )))

;; "slice_has_bounds"
(assert
  (forall ((a map2) (f Int) (l Int))
    (! (has_bounds1 (slice a f l) f l) :pattern ((has_bounds1
                                                   (slice a f l)
                                                   f
                                                   l)) )))

(declare-const factor_pivot Int)

(declare-const product_pivot Int)

(declare-sort tinteger_32B 0)

;; "tinteger_32B'int"
(declare-fun tinteger_32Bqtint (tinteger_32B) Int)

;; "tinteger_32B'axiom"
(assert
  (forall ((i tinteger_32B))
    (and
      (<= (- 2147483648) (tinteger_32Bqtint i))
      (<= (tinteger_32Bqtint i) 2147483647))))

;; "in_range"
(define-fun in_range1 ((x Int)) Bool
  (and (<= (- 2147483648) x) (<= x 2147483647)))

;; "in_range"
(define-fun in_range2 ((x Int)) Bool
  (and (<= 0 x) (<= x 63)))

;; "dynamic_invariant"
(define-fun dynamic_invariant ((temp___expr_371 map1) (temp___is_init_367 Bool) (temp___skip_constant_368 Bool) (temp___do_toplevel_369 Bool) (temp___do_typ_inv_370 Bool)) Bool
  (and
    (=>
      (= temp___is_init_367 true)
      (=>
        (= temp___do_toplevel_369 true)
        (= (bvand (to_rep (get temp___expr_371 63)) #xE0) #x00)))
    (has_bounds temp___expr_371 0 63)))

;; "to_rep"
(define-fun to_rep1 ((x tinteger_32B)) Int
  (tinteger_32Bqtint x))

;; "of_rep"
(declare-fun of_rep1 (Int) tinteger_32B)

;; "inversion_axiom"
(assert
  (forall ((x tinteger_32B))
    (! (= (of_rep1 (to_rep1 x)) x) :pattern ((to_rep1 x)) )))

;; "range_axiom"
(assert
  (forall ((x tinteger_32B))
    (! (in_range1 (to_rep1 x)) :pattern ((to_rep1 x)) )))

;; "coerce_axiom"
(assert
  (forall ((x Int))
    (! (=> (in_range1 x) (= (to_rep1 (of_rep1 x)) x)) :pattern ((to_rep1
                                                                  (of_rep1 x))) )))

(declare-datatypes ()
  ((t (tqtmk (rec__first tinteger_32B)(rec__last tinteger_32B)))))

;; "mk"
(declare-fun mk (Int
  Int) t)

;; "mk_def"
(assert
  (forall ((f Int) (l Int))
    (! (=>
         (in_range1 f)
         (=>
           (in_range1 l)
           (and
             (= (to_rep1 (rec__first (mk f l))) f)
             (= (to_rep1 (rec__last (mk f l))) l)))) :pattern ((mk f l)) )))

(declare-datatypes ()
  ((us_t (us_tqtmk (elts map2)(rt t)))))

;; "of_array"
(define-fun of_array ((a map2) (f Int) (l Int)) us_t
  (us_tqtmk a (mk f l)))

(declare-const a map1)

(declare-const product1 map2)

(declare-const upper_part (_ BitVec 8))

;; "upper_part'unused"
(define-fun upper_partqtunused () t__ref
  (t__refqtmk upper_part))

;; "product'unused"
(define-fun productqtunused () map__ref1
  (map__refqtmk1 product1))

;; "a'unused"
(define-fun aqtunused () map__ref
  (map__refqtmk a))

;; "Assume"
(assert (dynamic_invariant a true false true true))

;; "ada___ada___sparknacl__hashing__rfsb509__mul128__three_msb_mask__assume'unused"
(define-fun ada___ada___sparknacl__hashing__rfsb509__mul128__three_msb_mask__assumeqtunused 
  () (_ BitVec 8)
  #xE0)

;; "Assume"
(assert (= #xE0 three_msb_mask))

;; "Assume"
(assert true)

;; "ada___ada___sparknacl__hashing__rfsb509__mul128__exponent__assume'unused"
(define-fun ada___ada___sparknacl__hashing__rfsb509__mul128__exponent__assumeqtunused 
  () Int
  16)

;; "Assume"
(assert (= 16 exponent))

;; "Assume"
(assert (in_range2 exponent))

;; "ada___ada___sparknacl__hashing__rfsb509__mul128__shift_amount__assume'unused"
(define-fun ada___ada___sparknacl__hashing__rfsb509__mul128__shift_amount__assumeqtunused 
  () Int
  5)

;; "Assume"
(assert (= 5 shift_amount))

;; "Assume"
(assert (in_range shift_amount))

;; "Assume"
(assert (has_bounds1 product1 0 63))

;; "ada___ada___sparknacl__hashing__rfsb509__mul128__factor_pivot__assume'unused"
(define-fun ada___ada___sparknacl__hashing__rfsb509__mul128__factor_pivot__assumeqtunused 
  () Int
  47)

;; "Assume"
(assert (= 47 factor_pivot))

;; "Assume"
(assert (in_range2 factor_pivot))

;; "ada___ada___sparknacl__hashing__rfsb509__mul128__product_pivot__assume'unused"
(define-fun ada___ada___sparknacl__hashing__rfsb509__mul128__product_pivot__assumeqtunused 
  () Int
  16)

;; "Assume"
(assert (= 16 product_pivot))

;; "Assume"
(assert (in_range2 product_pivot))

(declare-const factor_index Int)

;; "factor_index'unused"
(define-fun factor_indexqtunused () int__ref
  (int__refqtmk factor_index))

;; "H"
(assert (= factor_index 47))

;; "Assume"
(assert (in_range2 factor_index))

(declare-const product_index Int)

;; "product_index'unused"
(define-fun product_indexqtunused () int__ref
  (int__refqtmk product_index))

;; "H"
(assert (= product_index 0))

;; "Assume"
(assert (in_range2 product_index))

;; "int__content'result'unused"
(define-fun int__contentqtresultqtunused () Int
  factor_index)

;; "map__content'result'unused"
(define-fun map__contentqtresultqtunused () map1
  a)

;; "o"
(define-fun o () byte
  (get a factor_index))

;; "get'result'unused"
(define-fun getqtresultqtunused () byte
  o)

(declare-const o1 (_ BitVec 8))

;; "Ensures"
(assert (= (to_rep o) o1))

;; "to_rep'result'unused"
(define-fun to_repqtresultqtunused () (_ BitVec 8)
  o1)

(declare-const current_byte (_ BitVec 8))

;; "current_byte'unused"
(define-fun current_byteqtunused () t__ref
  (t__refqtmk current_byte))

;; "H"
(assert (= current_byte o1))

;; "Assume"
(assert true)

(declare-const o2 (_ BitVec 8))

(declare-const infix_lsqtresultqtunused Bool)

;; "H"
(assert (= infix_lsqtresultqtunused (ite (< 5 8) true false)))

(declare-const o3 (_ BitVec 8))

(declare-const of_intqtresultqtunused (_ BitVec 8))

(declare-const t__contentqtresultqtunused (_ BitVec 8))

(declare-const lsr_bvqtresultqtunused (_ BitVec 8))

;; "H"
(assert
  (ite (< 5 8)
    (and
      (= o3 ((_ int2bv 8) 5))
      (and
        (= of_intqtresultqtunused o3)
        (and
          (= t__contentqtresultqtunused current_byte)
          (and (= o2 (bvlshr current_byte o3)) (= lsr_bvqtresultqtunused o2)))))
    (= o2 #x00)))

;; "Ensures"
(assert true)

;; "range_check_'result'unused"
(define-fun range_check_qtresultqtunused () (_ BitVec 8)
  o2)

(declare-const lower_part (_ BitVec 8))

;; "lower_part'unused"
(define-fun lower_partqtunused () t__ref
  (t__refqtmk lower_part))

;; "H"
(assert (= lower_part o2))

;; "Assume"
(assert true)

;; "Assume"
(assert true)

;; "Assume"
(assert true)

;; "t__content'result'unused"
(define-fun t__contentqtresultqtunused1 () (_ BitVec 8)
  lower_part)

(declare-const o4 byte)

;; "Ensures"
(assert (= (to_rep o4) lower_part))

;; "of_rep'result'unused"
(define-fun of_repqtresultqtunused () byte
  o4)

;; "o"
(define-fun o5 () byte__init_wrapper
  (byte__init_wrapperqtmk o4 true))

;; "to_wrapper'result'unused"
(define-fun to_wrapperqtresultqtunused () byte__init_wrapper
  o5)

;; "int__content'result'unused"
(define-fun int__contentqtresultqtunused1 () Int
  product_index)

;; "map__content'result'unused"
(define-fun map__contentqtresultqtunused1 () map2
  product1)

;; "o"
(define-fun o6 () map2
  (set product1 product_index o5))

;; "set'result'unused"
(define-fun setqtresultqtunused () map2
  o6)

(declare-const product2 map2)

;; "product'unused"
(define-fun productqtunused1 () map__ref1
  (map__refqtmk1 product2))

;; "H"
(assert (= product2 o6))

;; "int__content'result'unused"
(define-fun int__contentqtresultqtunused2 () Int
  factor_index)

;; "Ensures"
(assert (not (= factor_index 2147483647)))

;; "check_not_last'result'unused"
(define-fun check_not_lastqtresultqtunused () Int
  factor_index)

;; "o"
(define-fun o7 () Int
  (+ factor_index 1))

;; "infix +'result'unused"
(define-fun infix_plqtresultqtunused () Int
  o7)

;; "Ensures"
(assert (in_range2 o7))

;; "range_check_'result'unused"
(define-fun range_check_qtresultqtunused1 () Int
  o7)

(declare-const factor_index1 Int)

;; "factor_index'unused"
(define-fun factor_indexqtunused1 () int__ref
  (int__refqtmk factor_index1))

;; "H"
(assert (= factor_index1 o7))

;; "int__content'result'unused"
(define-fun int__contentqtresultqtunused3 () Int
  product_index)

;; "infix <'result'unused"
(define-fun infix_lsqtresultqtunused1 () Bool
  (ite (< product_index 16) true false))

;; "H"
(assert (< product_index 16))

;; "temp___loop_entry_787'unused"
(define-fun temp___loop_entry_787qtunused () (_ BitVec 8)
  current_byte)

;; "t__content'result'unused"
(define-fun t__contentqtresultqtunused2 () (_ BitVec 8)
  current_byte)

;; "temp___loop_entry_786'unused"
(define-fun temp___loop_entry_786qtunused () Int
  product_index)

;; "int__content'result'unused"
(define-fun int__contentqtresultqtunused4 () Int
  product_index)

;; "temp___loop_entry_785'unused"
(define-fun temp___loop_entry_785qtunused () Int
  factor_index1)

;; "int__content'result'unused"
(define-fun int__contentqtresultqtunused5 () Int
  factor_index1)

;; "temp___loop_entry_783'unused"
(define-fun temp___loop_entry_783qtunused () map2
  product2)

;; "map__content'result'unused"
(define-fun map__contentqtresultqtunused2 () map2
  product2)

;; "temp___loop_entry_781'unused"
(define-fun temp___loop_entry_781qtunused () (_ BitVec 8)
  upper_part)

;; "t__content'result'unused"
(define-fun t__contentqtresultqtunused3 () (_ BitVec 8)
  upper_part)

;; "temp___loop_entry_780'unused"
(define-fun temp___loop_entry_780qtunused () (_ BitVec 8)
  lower_part)

;; "t__content'result'unused"
(define-fun t__contentqtresultqtunused4 () (_ BitVec 8)
  lower_part)

;; "map__content'result'unused"
(define-fun map__contentqtresultqtunused3 () map2
  product2)

;; "int__content'result'unused"
(define-fun int__contentqtresultqtunused6 () Int
  product_index)

;; "temp___800"
(define-fun temp___800 () byte__init_wrapper
  (get1 product2 product_index))

;; "get'result'unused"
(define-fun getqtresultqtunused1 () byte__init_wrapper
  temp___800)

;; "Assert"
(assert (= (us_attr__init temp___800) true))

;; "o"
(define-fun o8 () byte
  (rec__value temp___800))

;; "of_wrapper'result'unused"
(define-fun of_wrapperqtresultqtunused () byte
  o8)

(declare-const o9 (_ BitVec 8))

;; "Ensures"
(assert (= (to_rep o8) o9))

;; "to_rep'result'unused"
(define-fun to_repqtresultqtunused1 () (_ BitVec 8)
  o9)

;; "o"
(define-fun o10 () (_ BitVec 8)
  (bvand o9 #xF8))

;; "bw_and'result'unused"
(define-fun bw_andqtresultqtunused () (_ BitVec 8)
  o10)

;; "o"
(define-fun o11 () Bool
  (ite (= o10 #x00) true false))

;; "eq'result'unused"
(define-fun eqqtresultqtunused () Bool
  o11)

;; "int__content'result'unused"
(define-fun int__contentqtresultqtunused7 () Int
  product_index)

;; "map__content'result'unused"
(define-fun map__contentqtresultqtunused4 () map2
  product2)

;; "Assert"
(assert
  (=>
    (<= 0 product_index)
    (and
      (and (<= 0 0) (<= 0 63))
      (and (<= 0 product_index) (<= product_index 63)))))

;; "o"
(define-fun o12 () map2
  (slice product2 0 product_index))

;; "slice'result'unused"
(define-fun sliceqtresultqtunused () map2
  o12)

;; "temp___793"
(define-fun temp___793 () us_t
  (of_array o12 0 product_index))

;; "of_array'result'unused"
(define-fun of_arrayqtresultqtunused () us_t
  temp___793)

;; "_f"
(define-fun usf () Bool
  (ite (forall ((temp___794 Int))
         (=>
           (and (<= 0 temp___794) (<= temp___794 product_index))
           (= (us_attr__init (get1 o12 temp___794)) true)))
    true
    false))

;; "any'result'unused"
(define-fun anyqtresultqtunused () Bool
  usf)

;; "int__content'result'unused"
(define-fun int__contentqtresultqtunused8 () Int
  product_index)

;; "int__content'result'unused"
(define-fun int__contentqtresultqtunused9 () Int
  factor_index1)

;; "o"
(define-fun o13 () Int
  (- factor_index1 product_index))

;; "infix -'result'unused"
(define-fun infix_mnqtresultqtunused () Int
  o13)

;; "o"
(define-fun o14 () Bool
  (ite (= o13 48) true false))

;; "infix ='result'unused"
(define-fun infix_eqqtresultqtunused () Bool
  o14)

;; "o"
(define-fun o15 () Bool
  (and o14 usf))

;; "andb'result'unused"
(define-fun andbqtresultqtunused () Bool
  o15)

;; "andb'result'unused"
(define-fun andbqtresultqtunused1 () Bool
  (and o15 o11))

(declare-const product3 map2)

(declare-const factor_index2 Int)

(declare-const product_index1 Int)

(declare-const current_byte1 (_ BitVec 8))

(declare-const lower_part1 (_ BitVec 8))

(declare-const upper_part1 (_ BitVec 8))

;; "product_index'unused"
(define-fun product_indexqtunused1 () int__ref
  (int__refqtmk product_index1))

;; "factor_index'unused"
(define-fun factor_indexqtunused2 () int__ref
  (int__refqtmk factor_index2))

;; "product'unused"
(define-fun productqtunused2 () map__ref1
  (map__refqtmk1 product3))

;; "LoopInvariant"
(assert
  (and
    (and
      (= (- factor_index2 product_index1) 48)
      (forall ((temp___805 Int))
        (=>
          (and (<= 0 temp___805) (<= temp___805 product_index1))
          (= (us_attr__init
               (get1 (slice product3 0 product_index1) temp___805)) true))))
    (= (bvand (to_rep (rec__value (get1 product3 product_index1))) #xF8) #x00)))

;; "loop_var___14080'unused"
(define-fun loop_var___14080qtunused () Int
  factor_index2)

;; "int__content'result'unused"
(define-fun int__contentqtresultqtunused10 () Int
  factor_index2)

;; "loop_var___14097'unused"
(define-fun loop_var___14097qtunused () Int
  product_index1)

;; "int__content'result'unused"
(define-fun int__contentqtresultqtunused11 () Int
  product_index1)

;; "Assume"
(assert
  (= (and (ite (and
                 (and (has_bounds1 product3 0 63) (in_range2 factor_index2))
                 (in_range2 product_index1))
            true
            false) (ite (< product_index1 16) true false)) true))

;; "int__content'result'unused"
(define-fun int__contentqtresultqtunused12 () Int
  factor_index2)

;; "map__content'result'unused"
(define-fun map__contentqtresultqtunused5 () map1
  a)

;; "o"
(define-fun o16 () byte
  (get a factor_index2))

;; "get'result'unused"
(define-fun getqtresultqtunused2 () byte
  o16)

(declare-const o17 (_ BitVec 8))

;; "Ensures"
(assert (= (to_rep o16) o17))

;; "to_rep'result'unused"
(define-fun to_repqtresultqtunused2 () (_ BitVec 8)
  o17)

(declare-const current_byte2 (_ BitVec 8))

;; "current_byte'unused"
(define-fun current_byteqtunused1 () t__ref
  (t__refqtmk current_byte2))

;; "H"
(assert (= current_byte2 o17))

(declare-const o18 (_ BitVec 8))

(declare-const infix_lsqtresultqtunused2 Bool)

;; "H"
(assert (= infix_lsqtresultqtunused2 (ite (< 5 8) true false)))

(declare-const o19 (_ BitVec 8))

(declare-const of_intqtresultqtunused1 (_ BitVec 8))

(declare-const t__contentqtresultqtunused5 (_ BitVec 8))

(declare-const lsr_bvqtresultqtunused1 (_ BitVec 8))

;; "H"
(assert
  (ite (< 5 8)
    (and
      (= o19 ((_ int2bv 8) 5))
      (and
        (= of_intqtresultqtunused1 o19)
        (and
          (= t__contentqtresultqtunused5 current_byte2)
          (and
            (= o18 (bvlshr current_byte2 o19))
            (= lsr_bvqtresultqtunused1 o18)))))
    (= o18 #x00)))

(declare-const lower_part2 (_ BitVec 8))

;; "lower_part'unused"
(define-fun lower_partqtunused1 () t__ref
  (t__refqtmk lower_part2))

;; "H"
(assert (= lower_part2 o18))

(declare-const o20 (_ BitVec 8))

(declare-const infix_lsqtresultqtunused3 Bool)

;; "H"
(assert (= infix_lsqtresultqtunused3 (ite (< 3 8) true false)))

(declare-const o21 (_ BitVec 8))

(declare-const of_intqtresultqtunused2 (_ BitVec 8))

(declare-const t__contentqtresultqtunused6 (_ BitVec 8))

(declare-const lsl_bvqtresultqtunused (_ BitVec 8))

;; "H"
(assert
  (ite (< 3 8)
    (and
      (= o21 ((_ int2bv 8) 3))
      (and
        (= of_intqtresultqtunused2 o21)
        (and
          (= t__contentqtresultqtunused6 current_byte2)
          (and
            (= o20 (bvshl current_byte2 o21))
            (= lsl_bvqtresultqtunused o20)))))
    (= o20 #x00)))

(declare-const upper_part2 (_ BitVec 8))

;; "upper_part'unused"
(define-fun upper_partqtunused1 () t__ref
  (t__refqtmk upper_part2))

;; "H"
(assert (= upper_part2 o20))

;; "t__content'result'unused"
(define-fun t__contentqtresultqtunused7 () (_ BitVec 8)
  upper_part2)

;; "map__content'result'unused"
(define-fun map__contentqtresultqtunused6 () map2
  product3)

;; "int__content'result'unused"
(define-fun int__contentqtresultqtunused13 () Int
  product_index1)

;; "temp___775"
(define-fun temp___775 () byte__init_wrapper
  (get1 product3 product_index1))

;; "get'result'unused"
(define-fun getqtresultqtunused3 () byte__init_wrapper
  temp___775)

;; "Assert"
(assert (= (us_attr__init temp___775) true))

;; "o"
(define-fun o22 () byte
  (rec__value temp___775))

;; "of_wrapper'result'unused"
(define-fun of_wrapperqtresultqtunused1 () byte
  o22)

(declare-const o23 (_ BitVec 8))

;; "Ensures"
(assert (= (to_rep o22) o23))

;; "to_rep'result'unused"
(define-fun to_repqtresultqtunused3 () (_ BitVec 8)
  o23)

;; "o"
(define-fun o24 () (_ BitVec 8)
  (bvor o23 upper_part2))

;; "bw_or'result'unused"
(define-fun bw_orqtresultqtunused () (_ BitVec 8)
  o24)

(declare-const o25 byte)

;; "Ensures"
(assert (= (to_rep o25) o24))

;; "of_rep'result'unused"
(define-fun of_repqtresultqtunused1 () byte
  o25)

;; "o"
(define-fun o26 () byte__init_wrapper
  (byte__init_wrapperqtmk o25 true))

;; "to_wrapper'result'unused"
(define-fun to_wrapperqtresultqtunused1 () byte__init_wrapper
  o26)

;; "int__content'result'unused"
(define-fun int__contentqtresultqtunused14 () Int
  product_index1)

;; "map__content'result'unused"
(define-fun map__contentqtresultqtunused7 () map2
  product3)

;; "o"
(define-fun o27 () map2
  (set product3 product_index1 o26))

;; "set'result'unused"
(define-fun setqtresultqtunused1 () map2
  o27)

(declare-const product4 map2)

;; "product'unused"
(define-fun productqtunused3 () map__ref1
  (map__refqtmk1 product4))

;; "H"
(assert (= product4 o27))

;; "int__content'result'unused"
(define-fun int__contentqtresultqtunused15 () Int
  product_index1)

;; "Ensures"
(assert (not (= product_index1 2147483647)))

;; "check_not_last'result'unused"
(define-fun check_not_lastqtresultqtunused1 () Int
  product_index1)

;; "o"
(define-fun o28 () Int
  (+ product_index1 1))

;; "infix +'result'unused"
(define-fun infix_plqtresultqtunused1 () Int
  o28)

;; "Ensures"
(assert (in_range2 o28))

;; "range_check_'result'unused"
(define-fun range_check_qtresultqtunused2 () Int
  o28)

(declare-const product_index2 Int)

;; "product_index'unused"
(define-fun product_indexqtunused2 () int__ref
  (int__refqtmk product_index2))

;; "H"
(assert (= product_index2 o28))

;; "t__content'result'unused"
(define-fun t__contentqtresultqtunused8 () (_ BitVec 8)
  lower_part2)

(declare-const o29 byte)

;; "Ensures"
(assert (= (to_rep o29) lower_part2))

;; "of_rep'result'unused"
(define-fun of_repqtresultqtunused2 () byte
  o29)

;; "o"
(define-fun o30 () byte__init_wrapper
  (byte__init_wrapperqtmk o29 true))

;; "to_wrapper'result'unused"
(define-fun to_wrapperqtresultqtunused2 () byte__init_wrapper
  o30)

;; "int__content'result'unused"
(define-fun int__contentqtresultqtunused16 () Int
  product_index2)

;; "map__content'result'unused"
(define-fun map__contentqtresultqtunused8 () map2
  product4)

;; "o"
(define-fun o31 () map2
  (set product4 product_index2 o30))

;; "set'result'unused"
(define-fun setqtresultqtunused2 () map2
  o31)

(declare-const product5 map2)

;; "product'unused"
(define-fun productqtunused4 () map__ref1
  (map__refqtmk1 product5))

;; "H"
(assert (= product5 o31))

;; "int__content'result'unused"
(define-fun int__contentqtresultqtunused17 () Int
  product_index2)

;; "infix ='result'unused"
(define-fun infix_eqqtresultqtunused1 () Bool
  (ite (= product_index2 16) true false))

;; "H"
(assert (not (= product_index2 16)))

;; "int__content'result'unused"
(define-fun int__contentqtresultqtunused18 () Int
  factor_index2)

;; "Ensures"
(assert (not (= factor_index2 2147483647)))

;; "check_not_last'result'unused"
(define-fun check_not_lastqtresultqtunused2 () Int
  factor_index2)

;; "o"
(define-fun o32 () Int
  (+ factor_index2 1))

;; "infix +'result'unused"
(define-fun infix_plqtresultqtunused2 () Int
  o32)

;; "Ensures"
(assert (in_range2 o32))

;; "range_check_'result'unused"
(define-fun range_check_qtresultqtunused3 () Int
  o32)

(declare-const factor_index3 Int)

;; "factor_index'unused"
(define-fun factor_indexqtunused3 () int__ref
  (int__refqtmk factor_index3))

;; "H"
(assert (= factor_index3 o32))

;; "int__content'result'unused"
(define-fun int__contentqtresultqtunused19 () Int
  product_index2)

;; "infix <'result'unused"
(define-fun infix_lsqtresultqtunused4 () Bool
  (ite (< product_index2 16) true false))

;; "H"
(assert (< product_index2 16))

;; "map__content'result'unused"
(define-fun map__contentqtresultqtunused9 () map2
  product5)

;; "int__content'result'unused"
(define-fun int__contentqtresultqtunused20 () Int
  product_index2)

;; "temp___800"
(define-fun temp___8001 () byte__init_wrapper
  (get1 product5 product_index2))

;; "get'result'unused"
(define-fun getqtresultqtunused4 () byte__init_wrapper
  temp___8001)

;; "Assert"
(assert (= (us_attr__init temp___8001) true))

;; "o"
(define-fun o33 () byte
  (rec__value temp___8001))

;; "of_wrapper'result'unused"
(define-fun of_wrapperqtresultqtunused2 () byte
  o33)

(declare-const o34 (_ BitVec 8))

;; "Ensures"
(assert (= (to_rep o33) o34))

;; "to_rep'result'unused"
(define-fun to_repqtresultqtunused4 () (_ BitVec 8)
  o34)

;; "o"
(define-fun o35 () (_ BitVec 8)
  (bvand o34 #xF8))

;; "bw_and'result'unused"
(define-fun bw_andqtresultqtunused1 () (_ BitVec 8)
  o35)

;; "o"
(define-fun o36 () Bool
  (ite (= o35 #x00) true false))

;; "eq'result'unused"
(define-fun eqqtresultqtunused1 () Bool
  o36)

;; "int__content'result'unused"
(define-fun int__contentqtresultqtunused21 () Int
  product_index2)

;; "map__content'result'unused"
(define-fun map__contentqtresultqtunused10 () map2
  product5)

;; "H"
(assert (<= 0 product_index2))

;; Goal "def'vc"
;; File "sparknacl-hashing-rfsb509.adb", line 47, characters 0-0
(assert
  (not (<= product_index2 63)))

(check-sat)
